\ Model prob_25
\ LP format - for model browsing. Use MPS format to capture full model detail.
Minimize
  7 Chicken + 10 Rice + 9 Broccoli + 2 Eggs
Subject To
 R0: 17 Chicken + 20 Rice + 3 Broccoli + 18 Eggs >= 84
 R1: 6 Chicken + 13 Rice + 25 Broccoli + 20 Eggs >= 117
 R2: 94 Chicken + 74 Rice + 73 Broccoli + 119 Eggs >= 1554
Bounds
Generals
 Chicken Rice Broccoli Eggs
End
